c colouring generated by benchmark framework
p edge 450 5734
v 1 1
v 2 0
v 3 3
v 4 2
v 5 4
v 6 1
v 7 0
v 8 3
v 9 2
v 10 4
v 11 1
v 12 0
v 13 3
v 14 2
v 15 4
v 16 1
v 17 0
v 18 3
v 19 2
v 20 4
v 21 1
v 22 0
v 23 3
v 24 2
v 25 4
v 26 1
v 27 0
v 28 3
v 29 2
v 30 4
v 31 1
v 32 0
v 33 3
v 34 2
v 35 4
v 36 1
v 37 0
v 38 3
v 39 2
v 40 4
v 41 1
v 42 0
v 43 3
v 44 2
v 45 4
v 46 1
v 47 0
v 48 3
v 49 2
v 50 4
v 51 1
v 52 0
v 53 3
v 54 2
v 55 4
v 56 1
v 57 0
v 58 3
v 59 2
v 60 4
v 61 1
v 62 0
v 63 3
v 64 2
v 65 4
v 66 1
v 67 0
v 68 3
v 69 2
v 70 4
v 71 1
v 72 0
v 73 3
v 74 2
v 75 4
v 76 1
v 77 0
v 78 3
v 79 2
v 80 4
v 81 1
v 82 0
v 83 3
v 84 2
v 85 4
v 86 1
v 87 0
v 88 3
v 89 2
v 90 4
v 91 1
v 92 0
v 93 3
v 94 2
v 95 4
v 96 1
v 97 0
v 98 3
v 99 2
v 100 4
v 101 1
v 102 0
v 103 3
v 104 2
v 105 4
v 106 1
v 107 0
v 108 3
v 109 2
v 110 4
v 111 1
v 112 0
v 113 3
v 114 2
v 115 4
v 116 1
v 117 0
v 118 3
v 119 2
v 120 4
v 121 1
v 122 0
v 123 3
v 124 2
v 125 4
v 126 1
v 127 0
v 128 3
v 129 2
v 130 4
v 131 1
v 132 0
v 133 3
v 134 2
v 135 4
v 136 1
v 137 0
v 138 3
v 139 2
v 140 4
v 141 1
v 142 0
v 143 3
v 144 2
v 145 4
v 146 1
v 147 0
v 148 3
v 149 2
v 150 4
v 151 1
v 152 0
v 153 3
v 154 2
v 155 4
v 156 1
v 157 0
v 158 3
v 159 2
v 160 4
v 161 1
v 162 0
v 163 3
v 164 2
v 165 4
v 166 1
v 167 0
v 168 3
v 169 2
v 170 4
v 171 1
v 172 0
v 173 3
v 174 2
v 175 4
v 176 1
v 177 0
v 178 3
v 179 2
v 180 4
v 181 1
v 182 0
v 183 3
v 184 2
v 185 4
v 186 1
v 187 0
v 188 3
v 189 2
v 190 4
v 191 1
v 192 0
v 193 3
v 194 2
v 195 4
v 196 1
v 197 0
v 198 3
v 199 2
v 200 4
v 201 1
v 202 0
v 203 3
v 204 2
v 205 4
v 206 1
v 207 0
v 208 3
v 209 2
v 210 4
v 211 1
v 212 0
v 213 3
v 214 2
v 215 4
v 216 1
v 217 0
v 218 3
v 219 2
v 220 4
v 221 1
v 222 0
v 223 3
v 224 2
v 225 4
v 226 1
v 227 0
v 228 3
v 229 2
v 230 4
v 231 1
v 232 0
v 233 3
v 234 2
v 235 4
v 236 1
v 237 0
v 238 3
v 239 2
v 240 4
v 241 1
v 242 0
v 243 3
v 244 2
v 245 4
v 246 1
v 247 0
v 248 3
v 249 2
v 250 4
v 251 1
v 252 0
v 253 3
v 254 2
v 255 4
v 256 1
v 257 0
v 258 3
v 259 2
v 260 4
v 261 1
v 262 0
v 263 3
v 264 2
v 265 4
v 266 1
v 267 0
v 268 3
v 269 2
v 270 4
v 271 1
v 272 0
v 273 3
v 274 2
v 275 4
v 276 1
v 277 0
v 278 3
v 279 2
v 280 4
v 281 1
v 282 0
v 283 3
v 284 2
v 285 4
v 286 1
v 287 0
v 288 3
v 289 2
v 290 4
v 291 1
v 292 0
v 293 3
v 294 2
v 295 4
v 296 1
v 297 0
v 298 3
v 299 2
v 300 4
v 301 1
v 302 0
v 303 3
v 304 2
v 305 4
v 306 1
v 307 0
v 308 3
v 309 2
v 310 4
v 311 1
v 312 0
v 313 3
v 314 2
v 315 4
v 316 1
v 317 0
v 318 3
v 319 2
v 320 4
v 321 1
v 322 0
v 323 3
v 324 2
v 325 4
v 326 1
v 327 0
v 328 3
v 329 2
v 330 4
v 331 1
v 332 0
v 333 3
v 334 2
v 335 4
v 336 1
v 337 0
v 338 3
v 339 2
v 340 4
v 341 1
v 342 0
v 343 3
v 344 2
v 345 4
v 346 1
v 347 0
v 348 3
v 349 2
v 350 4
v 351 1
v 352 0
v 353 3
v 354 2
v 355 4
v 356 1
v 357 0
v 358 3
v 359 2
v 360 4
v 361 1
v 362 0
v 363 3
v 364 2
v 365 4
v 366 1
v 367 0
v 368 3
v 369 2
v 370 4
v 371 1
v 372 0
v 373 3
v 374 2
v 375 4
v 376 1
v 377 0
v 378 3
v 379 2
v 380 4
v 381 1
v 382 0
v 383 3
v 384 2
v 385 4
v 386 1
v 387 0
v 388 3
v 389 2
v 390 4
v 391 1
v 392 0
v 393 3
v 394 2
v 395 4
v 396 1
v 397 0
v 398 3
v 399 2
v 400 4
v 401 1
v 402 0
v 403 3
v 404 2
v 405 4
v 406 1
v 407 0
v 408 3
v 409 2
v 410 4
v 411 1
v 412 0
v 413 3
v 414 2
v 415 4
v 416 1
v 417 0
v 418 3
v 419 2
v 420 4
v 421 1
v 422 0
v 423 3
v 424 2
v 425 4
v 426 1
v 427 0
v 428 3
v 429 2
v 430 4
v 431 1
v 432 0
v 433 3
v 434 2
v 435 4
v 436 1
v 437 0
v 438 3
v 439 2
v 440 4
v 441 1
v 442 0
v 443 3
v 444 2
v 445 4
v 446 1
v 447 0
v 448 3
v 449 2
v 450 4
